<?xml version = "1.0" standalone="yes"?>
<!-- This file has been generated by DOcplex version 2.23.222  -->
<CPLEXSolution version="1.0">
 <header
   problemName="CVRP"
   objectiveValue="13386"
  />
 <variables>
  <variable name="x_0_3" index="2" value="1.00000"/>
  <variable name="x_0_6" index="5" value="1.00000"/>
  <variable name="x_0_7" index="6" value="1.00000"/>
  <variable name="x_0_8" index="7" value="1.00000"/>
  <variable name="x_0_9" index="8" value="1.00000"/>
  <variable name="x_0_11" index="10" value="1.00000"/>
  <variable name="x_0_13" index="12" value="1.00000"/>
  <variable name="x_0_16" index="15" value="1.00000"/>
  <variable name="x_0_17" index="16" value="1.00000"/>
  <variable name="x_0_20" index="19" value="1.00000"/>
  <variable name="x_0_21" index="20" value="1.00000"/>
  <variable name="x_0_23" index="22" value="1.00000"/>
  <variable name="x_0_25" index="24" value="1.00000"/>
  <variable name="x_0_26" index="25" value="1.00000"/>
  <variable name="x_0_29" index="28" value="1.00000"/>
  <variable name="x_1_27" index="56" value="1.00000"/>
  <variable name="x_2_0" index="60" value="1.00000"/>
  <variable name="x_3_0" index="90" value="1.00000"/>
  <variable name="x_4_0" index="120" value="1.00000"/>
  <variable name="x_5_30" index="179" value="1.00000"/>
  <variable name="x_6_0" index="180" value="1.00000"/>
  <variable name="x_7_0" index="210" value="1.00000"/>
  <variable name="x_8_2" index="242" value="1.00000"/>
  <variable name="x_9_4" index="274" value="1.00000"/>
  <variable name="x_10_22" index="321" value="1.00000"/>
  <variable name="x_11_0" index="330" value="1.00000"/>
  <variable name="x_12_19" index="378" value="1.00000"/>
  <variable name="x_13_28" index="417" value="1.00000"/>
  <variable name="x_14_0" index="420" value="1.00000"/>
  <variable name="x_15_0" index="450" value="1.00000"/>
  <variable name="x_16_0" index="480" value="1.00000"/>
  <variable name="x_17_1" index="511" value="1.00000"/>
  <variable name="x_18_0" index="540" value="1.00000"/>
  <variable name="x_19_0" index="570" value="1.00000"/>
  <variable name="x_20_10" index="610" value="1.00000"/>
  <variable name="x_21_18" index="648" value="1.00000"/>
  <variable name="x_22_0" index="660" value="1.00000"/>
  <variable name="x_23_24" index="713" value="1.00000"/>
  <variable name="x_24_0" index="720" value="1.00000"/>
  <variable name="x_25_14" index="764" value="1.00000"/>
  <variable name="x_26_15" index="795" value="1.00000"/>
  <variable name="x_27_0" index="810" value="1.00000"/>
  <variable name="x_28_0" index="840" value="1.00000"/>
  <variable name="x_29_5" index="875" value="1.00000"/>
  <variable name="x_30_12" index="912" value="1.00000"/>
  <variable name="u_1" index="930" value="36.00000"/>
  <variable name="u_2" index="931" value="47.00000"/>
  <variable name="u_3" index="932" value="47.00000"/>
  <variable name="u_4" index="933" value="45.00000"/>
  <variable name="u_5" index="934" value="24.00000"/>
  <variable name="u_6" index="935" value="47.00000"/>
  <variable name="u_7" index="936" value="47.00000"/>
  <variable name="u_8" index="937" value="20.00000"/>
  <variable name="u_9" index="938" value="8.00000"/>
  <variable name="u_10" index="939" value="11.00000"/>
  <variable name="u_11" index="940" value="47.00000"/>
  <variable name="u_12" index="941" value="35.00000"/>
  <variable name="u_13" index="942" value="18.00000"/>
  <variable name="u_14" index="943" value="47.00000"/>
  <variable name="u_15" index="944" value="39.00000"/>
  <variable name="u_16" index="945" value="46.00000"/>
  <variable name="u_17" index="946" value="23.00000"/>
  <variable name="u_18" index="947" value="47.00000"/>
  <variable name="u_19" index="948" value="47.00000"/>
  <variable name="u_20" index="949" value="9.00000"/>
  <variable name="u_21" index="950" value="21.00000"/>
  <variable name="u_22" index="951" value="45.00000"/>
  <variable name="u_23" index="952" value="11.00000"/>
  <variable name="u_24" index="953" value="41.00000"/>
  <variable name="u_25" index="954" value="7.00000"/>
  <variable name="u_26" index="955" value="19.00000"/>
  <variable name="u_27" index="956" value="45.00000"/>
  <variable name="u_28" index="957" value="47.00000"/>
  <variable name="u_29" index="958" value="4.00000"/>
  <variable name="u_30" index="959" value="31.00000"/>
 </variables>
</CPLEXSolution>
